NAME : mEgtspf.pid12283.gtsp.144061425.tour
COMMENT : Length = 144061425
COMMENT : Found by LKH [Keld Helsgaun] Tue Mar 18 18:02:29 2025
TYPE : TOUR
DIMENSION : 90
TOUR_SECTION
1
28
29
30
27
80
81
82
79
4
47
48
49
50
16
17
18
15
84
85
86
83
60
61
62
59
52
53
54
51
44
45
46
43
5
78
75
76
77
40
41
42
39
25
26
23
24
9
2
89
90
87
88
6
57
58
55
56
8
12
13
14
11
36
37
38
35
32
33
34
31
64
65
66
63
20
21
22
19
3
10
73
74
71
72
68
69
70
67
7
-1
EOF
